2 20
522 495 
0 98 99 9 17 92 44 2
1 68 71 15 14 5 87 2
2 104 97 68 68 45 64 2
3 87 90 46 45 26 24 2
4 64 71 31 22 79 30 2
5 94 93 49 47 53 100 2
6 66 60 95 87 30 27 1
7 11 15 49 53 3 93 2
8 84 92 61 59 24 18 2
9 1 1 64 56 66 56 1
10 20 19 48 57 18 36 2
11 77 82 83 85 29 61 1
12 28 23 64 74 51 60 1
13 30 27 67 74 69 32 1
14 27 28 65 62 47 87 1
15 15 20 52 42 46 38 2
16 33 36 26 23 21 85 2
17 12 15 1 2 18 68 1
18 33 40 62 63 1 41 2
19 60 65 49 40 87 60 2
